(set-info :smt-lib-version 2.6)
(set-logic QF_SLIA)
(set-info :source |
Generated by: Joel Day, Thorsten Ehlers, Mitja Kulczynski, Federico Mora, Florin Manea, Dirk Nowotka, Danny Poulsen, Zhengyang Lu
Application: Test WOORPJE
Target solver: WOORPJE
Publications: Day, J. D., Ehlers, T., Kulczynski, M., Manea, F., Nowotka, D., & Poulsen, D. B. (2019). On solving word equations using SAT. In RP 2019
Description: Enriches a system of 30 word equations by suitable linear constraints
|)
(set-info :license "https://creativecommons.org/licenses/by/4.0/")
(set-info :category "random")
(set-info :status unknown)

(declare-fun I () String)
(declare-fun H () String)
(declare-fun B () String)
(declare-fun A () String)
(declare-fun J () String)
(assert (= (str.++  B "bc" I "a" A "b" J "addbeadbcbfdaeddbe")  (str.++  "bcacbccaafdfab" H "adbcbfdaeddbe") ))
(assert (= (str.++  "efabaeccfcbdcbcdbaacba" J "cabdcccbbdbeebba")  (str.++  "efabaeccfcbdcbcdbaacba" J I "bdcccbbdbeebba") ))
(assert (= (str.++  "ecdddebeeddedcedcdfbeceeaecdeaceacecd" I "e")  (str.++  "ecdddebeeddedcedcdfbeceeaecdeaceacecd" I "e") ))
(assert (<=(* (str.len B) 11) 671))
(assert (<=(* (str.len A) 14) 140))
(assert (>=(* (str.len I) 3) 6))
(assert (<=(* (str.len I) 7) 175))
(check-sat)

(exit)
